NAME : amz2634.63303_61803.tour
COMMENT : Cost = 63303_61803
COMMENT : Found by LKH-AMZ [Keld Helsgaun] Sun May 11 14:04:35 2025
COMMENT : TW viol.: 0 #: 0
TYPE : TOUR
DIMENSION : 131
TOUR_SECTION
59
84
64
124
96
16
114
103
101
72
104
128
4
121
62
126
32
68
46
130
69
13
11
19
14
95
90
31
93
17
7
33
58
40
38
91
110
111
26
74
88
127
28
37
9
50
94
67
36
54
109
113
25
15
80
34
30
3
78
120
44
131
5
8
99
12
71
29
79
43
108
42
23
63
22
45
75
6
92
87
82
55
18
119
10
73
117
52
66
47
125
107
81
100
118
24
112
85
123
39
20
2
86
41
35
97
122
60
89
51
49
83
53
61
1
98
116
105
70
48
56
27
106
21
129
65
102
77
76
115
57
-1
EOF
